3147.20 0
0 61 64 134 118 117 114 124 127 123 115 29 37 0
0 34 25 136 62 0
0 135 125 120 119 113 122 73 67 72 69 66 0
0 137 76 85 77 78 83 87 75 93 95 96 94 0
0 1 104 108 132 18 21 22 35 28 26 31 32 30 23 24 0
0 20 19 33 36 27 0
0 53 59 54 60 55 0
0 107 100 102 149 84 92 89 142 147 140 141 148 138 0
0 145 144 139 143 14 13 6 101 99 105 112 0
0 111 110 97 0
0 57 51 44 43 38 40 49 47 39 74 65 68 70 71 0
0 52 58 46 41 45 4 11 150 7 42 48 50 0
0 90 88 86 91 81 82 79 80 146 98 103 109 0
0 63 56 129 133 126 128 116 121 131 130 0
0 106 15 8 10 3 9 17 5 16 2 12 0